NAME lp_typeD_814
OBJSENSE MAX
ROWS
 N  OBJ
 L  c0      
 G  c1      
 G  c2      
 L  c_key_upper
 G  c_key_lower
 G  _chain_constr_1
 G  _chain_constr_2
 G  _chain_constr_3
 G  _chain_cycle
COLUMNS
    x0        OBJ       1.3642295910496229e+00
    x0        c0        7.2556383365866273e-01
    x0        c1        6.7589891171910055e-01
    x0        c2        9.2792791121904727e-01
    x0        c_key_upper  1.3466259291462883e+00
    x0        c_key_lower  1.3466259291462883e+00
    x1        OBJ       0.750077723887223
    x1        c0        1.9005464546262762e+00
    x1        c1        5.7047198707234026e-01
    x1        c2        1.2495064170179135e+00
    x1        c_key_upper  1.0363731966228764e+00
    x1        c_key_lower  1.0363731966228764e+00
    x2        OBJ       0.579095263585042
    x2        c0        1.1807654221468691e+00
    x2        c1        1.2098218761614827e+00
    x2        c2        6.9512175424171652e-01
    x2        c_key_upper  1.37373362359508
    x2        c_key_lower  1.37373362359508
    x3        OBJ       8.0056502717608180e-01
    x3        c0        1.2481289451808693e+00
    x3        c1        5.7703743081748571e-01
    x3        c2        1.9157964757776182e+00
    x3        c_key_upper  1.9925161734807033e+00
    x3        c_key_lower  1.9925161734807033e+00
    x4        OBJ       1.4982636531755507e+00
    x4        c0        1.6325091630539903e+00
    x4        c1        5.8682098360684787e-01
    x4        c2        1.3265054145364146e+00
    x4        c_key_upper  1.9071898589429193e+00
    x4        c_key_lower  1.9071898589429193e+00
    x5        OBJ       6.2609857730358309e-01
    x5        c0        5.4190570617598466e-01
    x5        c1        1.2462675994887438e+00
    x5        c2        1.8173371520288508e+00
    x5        c_key_upper  1.2598641035088032e+00
    x5        c_key_lower  1.2598641035088032e+00
    x6        OBJ       7.6012901590664106e-01
    x6        c0        1.1233432538852397e+00
    x6        c1        1.6892636461910164e+00
    x6        c2        1.6701571310641605e+00
    x6        c_key_upper  1.8652554577400557e+00
    x6        c_key_lower  1.8652554577400557e+00
    x7        OBJ       1.3708459200955210e+00
    x7        c0        1.2862260264367853e+00
    x7        c1        1.6786667982681707e+00
    x7        c2        1.3769243769662010e+00
    x7        c_key_upper  1.6044072712520627e+00
    x7        c_key_lower  1.6044072712520627e+00
    x8        OBJ       6.2248559886034172e-01
    x8        c0        1.8936635386200931e+00
    x8        c1        1.1027691242777622e+00
    x8        c2        6.3340133653851516e-01
    x8        c_key_upper  1.0079955358076276e+00
    x8        c_key_lower  1.0079955358076276e+00
    x9        OBJ       0.893836399462003
    x9        c0        1.9678071699695261e+00
    x9        c1        1.1751368996341212e+00
    x9        c2        1.3742012452713686e+00
    x9        c_key_upper  1.9509897237545897e+00
    x9        c_key_lower  1.9509897237545897e+00
    _chain_var_0  _chain_constr_1  -1
    _chain_var_0  _chain_cycle  1
    _chain_var_1  _chain_constr_1  1
    _chain_var_1  _chain_constr_2  -1
    _chain_var_2  _chain_constr_2  1
    _chain_var_2  _chain_constr_3  -1
    _chain_var_3  _chain_constr_3  1
    _chain_var_3  _chain_cycle  -1
RHS
    RHS1      c0        7.4526045373716116e+01
    RHS1      c1        1.5089873442578881e+01
    RHS1      c2        1.6469562537599195e+01
    RHS1      c_key_upper  7.6724754369255010e+01
    RHS1      c_key_lower  3.8362377184627505e+01
    RHS1      _chain_constr_1  10
    RHS1      _chain_constr_2  10
    RHS1      _chain_constr_3  10
    RHS1      _chain_cycle  10
BOUNDS
 UP BND1      x0        10
 UP BND1      x1        10
 UP BND1      x2        10
 UP BND1      x3        10
 UP BND1      x4        10
 UP BND1      x5        10
 UP BND1      x6        10
 UP BND1      x7        10
 UP BND1      x8        10
 UP BND1      x9        10
 UP BND1      _chain_var_0  100
 UP BND1      _chain_var_1  100
 UP BND1      _chain_var_2  100
 UP BND1      _chain_var_3  100
ENDATA
